This is Ipopt version 3.14.16, running with linear solver MUMPS 5.7.3.

Number of nonzeros in equality constraint Jacobian...:        0
Number of nonzeros in inequality constraint Jacobian.:      153
Number of nonzeros in Lagrangian Hessian.............:        0

Total number of variables............................:        9
                     variables with only lower bounds:        0
                variables with lower and upper bounds:        9
                     variables with only upper bounds:        0
Total number of equality constraints.................:        0
Total number of inequality constraints...............:       17
        inequality constraints with only lower bounds:        0
   inequality constraints with lower and upper bounds:        0
        inequality constraints with only upper bounds:       17

iter    objective    inf_pr   inf_du lg(mu)  ||d||  lg(rg) alpha_du alpha_pr  ls
   0  3.2232550e-02 0.00e+00 8.70e-01   0.0 0.00e+00    -  0.00e+00 0.00e+00   0
   1  3.2187425e-02 0.00e+00 1.03e-01  -5.9 4.38e-02    -  9.06e-01 1.00e+00h  1
   2  3.1980141e-02 0.00e+00 1.51e-02  -6.9 7.13e-03    -  9.81e-01 1.00e+00h  1
   3  2.2339564e-02 1.58e-02 6.38e-03  -8.6 1.20e+00    -  6.51e-01 2.66e-01f  1
   4  2.1479114e-02 1.20e-01 1.56e-02  -4.3 1.85e+00    -  3.09e-01 9.82e-01h  1
   5  2.3438357e-02 6.00e-02 1.25e-02  -3.6 5.16e-01    -  8.65e-01 1.00e+00h  1
   6  2.6364102e-02 0.00e+00 6.30e-03  -3.6 9.49e-01    -  9.31e-01 1.00e+00h  1
   7  2.2086765e-02 7.61e-02 5.02e-03  -3.6 1.28e+00    -  7.62e-01 1.00e+00h  1
   8  2.3683903e-02 0.00e+00 2.52e-03  -3.9 6.44e-01    -  9.96e-01 1.00e+00h  1
   9  2.3926870e-02 3.41e-02 7.82e-02  -2.0 8.28e+00    -  1.53e-01 1.69e-02f  2
iter    objective    inf_pr   inf_du lg(mu)  ||d||  lg(rg) alpha_du alpha_pr  ls
  10  3.8383856e-02 0.00e+00 5.13e-02  -2.9 2.52e+00    -  2.89e-01 2.27e-01h  3
  11  3.6728419e-02 0.00e+00 5.24e-02  -2.9 8.78e-01    -  1.00e+00 1.80e-01h  2
  12  3.2001268e-02 0.00e+00 1.21e-02  -2.9 7.22e-01    -  1.00e+00 1.00e+00h  1
  13  2.9506003e-02 0.00e+00 2.60e-03  -2.9 1.63e-01    -  1.00e+00 1.00e+00h  1
  14  2.9357046e-02 0.00e+00 2.08e-03  -2.9 8.33e-02    -  1.00e+00 1.00e+00h  1
  15  2.4522808e-02 4.79e-03 7.21e-03  -4.3 3.08e-01    -  7.64e-01 6.12e-01h  1
  16  2.2297181e-02 2.81e-02 6.29e-03  -4.3 3.79e-01    -  7.96e-01 9.45e-01h  1
  17  2.2350042e-02 1.73e-02 3.55e-03  -4.0 3.61e-01    -  9.99e-01 1.00e+00h  1
  18  2.2609148e-02 2.83e-03 3.30e-03  -4.1 1.77e-01    -  1.00e+00 1.00e+00h  1
  19  2.2435407e-02 0.00e+00 2.75e-03  -5.1 1.23e-01    -  1.00e+00 1.00e+00h  1
iter    objective    inf_pr   inf_du lg(mu)  ||d||  lg(rg) alpha_du alpha_pr  ls
  20  2.2145428e-02 2.51e-03 1.20e-03  -5.1 6.33e-02    -  1.00e+00 9.99e-01h  1
  21  2.2139809e-02 1.73e-03 9.47e-04  -5.7 3.26e-02    -  1.00e+00 1.00e+00h  1
  22  2.2146780e-02 7.89e-04 4.32e-04  -6.3 1.15e-02    -  1.00e+00 1.00e+00h  1
  23  2.2159174e-02 9.32e-05 2.57e-04  -7.2 1.05e-02    -  1.00e+00 1.00e+00h  1
  24  2.2149017e-02 7.05e-04 6.74e-04  -8.4 1.62e-02    -  1.00e+00 1.00e+00h  1
  25  2.2158575e-02 1.27e-04 3.27e-04  -9.1 1.10e-02    -  1.00e+00 1.00e+00h  1
  26  2.2146145e-02 7.57e-04 4.18e-04 -10.2 2.11e-02    -  1.00e+00 1.00e+00h  1
  27  2.2160851e-02 4.40e-05 2.99e-04 -10.9 1.12e-02    -  1.00e+00 1.00e+00h  1
  28  2.2124607e-02 2.71e-03 8.88e-04 -11.0 5.15e-02    -  1.00e+00 1.00e+00h  1
  29  2.2147601e-02 6.16e-04 3.65e-04 -11.0 3.82e-02    -  1.00e+00 1.00e+00h  1
iter    objective    inf_pr   inf_du lg(mu)  ||d||  lg(rg) alpha_du alpha_pr  ls
  30  2.2302175e-02 0.00e+00 3.89e-03 -11.0 5.87e-02    -  1.00e+00 1.00e+00H  1
  31  2.2253154e-02 0.00e+00 3.32e-04 -11.0 5.50e-02    -  1.00e+00 1.00e+00h  1
  32  2.2157513e-02 1.39e-04 4.47e-04 -11.0 6.06e-03    -  1.00e+00 1.00e+00h  1
  33  2.2160326e-02 4.23e-06 2.78e-04 -11.0 2.58e-03    -  1.00e+00 1.00e+00h  1
  34  2.2128887e-02 2.45e-03 7.99e-04 -11.0 4.80e-02    -  1.00e+00 1.00e+00h  1
  35  2.2155528e-02 3.62e-04 6.16e-04 -11.0 3.67e-02    -  1.00e+00 1.00e+00h  1
  36  2.2729672e-02 0.00e+00 6.43e-03 -11.0 1.81e-01    -  1.00e+00 1.00e+00H  1
  37  2.2227308e-02 0.00e+00 5.11e-04 -11.0 1.66e-01    -  1.00e+00 1.00e+00h  1
  38  2.2157185e-02 1.78e-04 3.76e-04 -11.0 7.93e-03    -  1.00e+00 1.00e+00h  1
  39  2.2160631e-02 4.09e-06 3.32e-04 -11.0 3.17e-03    -  1.00e+00 1.00e+00h  1
iter    objective    inf_pr   inf_du lg(mu)  ||d||  lg(rg) alpha_du alpha_pr  ls
  40  2.2300255e-02 3.49e-07 2.03e-03 -11.0 7.47e-02    -  1.00e+00 1.00e+00H  1
  41  2.2268427e-02 0.00e+00 3.72e-04 -11.0 6.75e-02    -  1.00e+00 1.00e+00h  1
  42  2.2159891e-02 2.69e-05 3.82e-04 -11.0 5.43e-03    -  1.00e+00 1.00e+00h  1
  43  2.2158929e-02 8.13e-05 2.60e-04 -11.0 2.47e-03    -  1.00e+00 1.00e+00h  1
  44  2.2160743e-02 6.50e-07 1.38e-04 -11.0 1.01e-03    -  1.00e+00 1.00e+00h  1
  45  2.2111849e-02 3.95e-03 1.12e-03 -11.0 7.11e-02    -  1.00e+00 1.00e+00h  1
  46  2.2152619e-02 4.83e-04 6.34e-04 -11.0 5.70e-02    -  1.00e+00 1.00e+00h  1
  47  2.2581025e-02 0.00e+00 6.38e-03 -11.0 1.47e-01    -  1.00e+00 1.00e+00H  1
  48  2.2235634e-02 0.00e+00 3.14e-04 -11.0 1.35e-01    -  1.00e+00 1.00e+00h  1
  49  2.2156881e-02 1.90e-04 5.23e-04 -11.0 6.19e-03    -  1.00e+00 1.00e+00h  1
iter    objective    inf_pr   inf_du lg(mu)  ||d||  lg(rg) alpha_du alpha_pr  ls
  50  2.2161090e-02 2.43e-06 2.28e-04 -11.0 2.44e-03    -  1.00e+00 1.00e+00h  1
  51  2.2038826e-02 9.74e-03 2.66e-03 -11.0 7.09e-01    -  1.00e+00 2.26e-01h  1
  52  2.2107195e-02 2.47e-03 4.91e-03 -10.0 1.35e-01    -  5.83e-01 1.00e+00h  1
  53  2.3059772e-02 0.00e+00 6.17e-03 -11.0 3.14e-01    -  9.01e-01 7.43e-01H  1
  54  2.2130751e-02 1.25e-03 2.26e-01  -9.2 2.18e-01    -  2.32e-02 1.00e+00h  1
  55  2.2151972e-02 4.27e-04 1.65e-02  -8.8 1.21e-02    -  6.45e-01 1.00e+00h  1
  56  2.2161581e-02 7.58e-06 2.51e-04  -9.8 4.57e-03    -  1.00e+00 1.00e+00h  1
  57  2.2160522e-02 7.70e-06 2.41e-04  -9.9 4.75e-03    -  1.00e+00 1.00e+00h  1
  58  2.2157607e-02 1.74e-04 3.86e-04  -9.9 5.18e-03    -  1.00e+00 1.00e+00h  1
  59  2.2161859e-02 8.12e-08 1.55e-04  -9.9 3.84e-04    -  1.00e+00 1.00e+00h  1
iter    objective    inf_pr   inf_du lg(mu)  ||d||  lg(rg) alpha_du alpha_pr  ls
  60  2.2125968e-02 1.69e-03 1.14e-03 -10.2 7.02e-02    -  1.00e+00 5.00e-01h  2
  61  2.2157722e-02 3.23e-04 3.38e-04 -10.8 1.24e-02    -  1.00e+00 1.00e+00h  1
  62  2.2156406e-02 1.86e-04 3.67e-04 -10.9 1.88e-02    -  1.00e+00 1.00e+00h  1
  63  2.2149612e-02 5.40e-04 2.48e-04 -11.0 1.22e-02    -  1.00e+00 1.00e+00h  1
  64  2.2161919e-02 1.13e-05 2.43e-04 -11.0 5.21e-03    -  1.00e+00 1.00e+00h  1
  65  2.1124587e-02 3.35e-01 2.81e-01 -11.0 5.34e+00    -  2.02e-01 2.45e-01h  1
  66  1.5570404e-02 3.36e-01 1.97e-01  -9.1 2.19e+02    -  1.56e-03 2.68e-04f  1
  67  1.5482905e-02 3.36e-01 4.91e-01  -7.8 2.65e+01    -  2.32e-01 2.02e-05h  1
  68  1.5483984e-02 3.36e-01 4.22e-01 -11.0 1.80e-01    -  1.40e-01 9.48e-05h  1
  69  1.5874724e-02 3.21e-01 3.06e-01  -9.0 3.53e-01    -  2.96e-01 4.51e-02h  1
iter    objective    inf_pr   inf_du lg(mu)  ||d||  lg(rg) alpha_du alpha_pr  ls
  70  1.6507762e-02 3.00e-01 1.61e-01  -9.3 3.52e-01    -  6.84e-01 7.05e-02h  1
  71  2.1637260e-02 1.61e-01 6.19e-02 -10.0 4.23e-01    -  4.01e-01 7.10e-01h  1
  72  2.2257191e-02 1.42e-01 5.43e-02  -9.4 8.03e-01    -  1.20e-01 1.87e-01h  1
  73  2.3309852e-02 1.24e-01 5.89e-02  -9.4 2.18e-01    -  7.43e-03 1.33e-01h  1
  74  2.3698046e-02 1.16e-01 5.86e-02  -9.4 1.63e-01    -  1.09e-03 6.20e-02h  1
  75  2.7394116e-02 0.00e+00 5.07e-02  -9.4 3.43e-01    -  7.90e-04 9.84e-01h  1
  76  2.7387085e-02 1.56e-12 8.23e-02  -9.4 2.67e+00    -  1.26e-01 4.08e-04h  1
  77  2.4878557e-02 0.00e+00 1.08e-01  -9.4 1.11e+00    -  4.24e-01 1.64e-01h  1
  78  2.4757664e-02 6.33e-03 2.06e-01  -9.4 9.29e-02    -  6.53e-02 1.00e+00f  1
  79  2.2660304e-02 1.48e-02 2.77e-01  -9.4 4.64e-01    -  5.57e-02 2.91e-01h  1
iter    objective    inf_pr   inf_du lg(mu)  ||d||  lg(rg) alpha_du alpha_pr  ls
  80  2.2611349e-02 1.40e-02 2.66e-01  -9.4 9.76e-02    -  1.59e-04 6.52e-02h  1
  81  2.2690041e-02 1.17e-02 2.08e-01  -9.4 9.90e-02    -  2.01e-01 1.83e-01h  1
  82  2.2798185e-02 7.09e-03 1.33e-01  -9.4 1.00e-01    -  1.26e-01 3.77e-01h  1
  83  2.1633614e-02 5.77e-03 2.09e-01  -9.4 1.52e-01    -  1.20e-01 3.90e-01f  1
  84  2.0441500e-02 5.06e-03 2.80e-01 -11.0 1.98e-01    -  1.55e-01 2.97e-01h  1
  85  2.0549577e-02 2.24e-04 2.89e-01  -9.8 1.58e-02    -  1.50e-03 9.71e-01h  1
  86  2.0387517e-02 2.33e-04 2.78e-01  -8.3 1.88e+01    -  8.50e-02 3.66e-04h  1
  87  2.0261604e-02 2.41e-04 1.90e-01  -8.9 1.05e+01    -  1.79e-01 5.59e-04h  1
  88  1.9718966e-02 3.82e-04 3.14e-01  -8.5 8.23e+00    -  1.00e+00 2.89e-03h  1
  89  1.9330004e-02 0.00e+00 4.47e-02  -9.3 1.45e-02    -  1.00e+00 9.92e-01h  1
iter    objective    inf_pr   inf_du lg(mu)  ||d||  lg(rg) alpha_du alpha_pr  ls
  90  1.8868722e-02 7.63e-07 2.59e-02  -9.1 1.94e-02    -  1.00e+00 6.13e-01h  1
  91  1.8115265e-02 1.80e-04 7.87e-02  -9.6 1.94e-02    -  1.00e+00 1.00e+00h  1
  92  1.7482525e-02 1.54e-04 7.39e-02 -10.3 1.94e-02    -  1.00e+00 8.58e-01h  1
  93  1.6703965e-02 1.68e-04 8.68e-02 -10.5 1.93e-02    -  1.00e+00 1.00e+00h  1
  94  1.5891364e-02 1.82e-04 9.53e-02 -11.0 2.01e-02    -  1.00e+00 1.00e+00h  1
  95  1.5123939e-02 2.92e-04 9.75e-02 -11.0 1.97e-02    -  1.00e+00 1.00e+00h  1
  96  5.1190303e-03 2.45e-02 7.27e-01 -10.4 2.78e-01    -  1.00e+00 1.00e+00h  1
  97  6.5623722e-03 2.11e-03 2.04e-01 -10.4 9.03e-02    -  1.00e+00 1.00e+00h  1
  98  6.6319540e-03 1.28e-04 3.61e-02 -11.0 1.81e-02    -  1.00e+00 1.00e+00h  1
  99  6.6402101e-03 1.33e-07 1.62e-04 -11.0 5.69e-04    -  1.00e+00 1.00e+00h  1
iter    objective    inf_pr   inf_du lg(mu)  ||d||  lg(rg) alpha_du alpha_pr  ls
 100  6.6402176e-03 3.23e-09 1.84e-05 -11.0 1.04e-04    -  1.00e+00 1.00e+00h  1

Number of Iterations....: 100

                                   (scaled)                 (unscaled)
Objective...............:   6.6402176074171447e-03    6.6402176074171447e-03
Dual infeasibility......:   1.8376882777559811e-05    1.8376882777559811e-05
Constraint violation....:   3.2300264077400696e-09    3.2300264077400696e-09
Variable bound violation:   4.9886521580333465e-08    4.9886521580333465e-08
Complementarity.........:   1.0000006197554138e-11    1.0000006197554138e-11
Overall NLP error.......:   1.8376882777559811e-05    1.8376882777559811e-05


Number of objective function evaluations             = 125
Number of objective gradient evaluations             = 101
Number of equality constraint evaluations            = 0
Number of inequality constraint evaluations          = 125
Number of equality constraint Jacobian evaluations   = 0
Number of inequality constraint Jacobian evaluations = 101
Number of Lagrangian Hessian evaluations             = 0
Total seconds in IPOPT                               = 5.516

EXIT: Maximum Number of Iterations Exceeded.
